[[94, 93, 92, 91, 83, 82, 73, 74, 75, 76, 67, 68, 66, 65, 64, 56, 59, 58, 49, 57, 55, 46, 47, 48, 39, 40, 38, 37, 28, 29], [30, 31, 21, 22, 19, 20, 11, 10, 2, 3, 12, 13, 4, 14, 5, 6, 7, 8, 9, 18, 17, 16, 15, 23, 24, 25, 26, 27, 35, 36, 44, 34, 43], [33, 32, 41, 42, 50, 51, 52, 45, 54, 53, 63, 60, 61, 62, 71, 72, 81, 80, 70, 69, 78, 77, 79, 88, 89, 90, 99, 98, 97, 96, 87, 95, 86, 85, 84]]